letting initialStacks = [9, 38, 49, 31, 19, 44, 41, 12, 23, 50, 26, 29, 18, 47, 10, 35, 51, 1, 8, 4, 22, 36, 21, 46, 11, 2, 15, 16, 6, 28, 42, 25, 48, 3, 32, 5, 17, 33, 27, 39, 37, 34, 7, 43, 45, 20, 24, 14, 40, 30, 13]
